
Gurobi 9.0.1 (win64) logging started 11/12/21 12:08:18

Changed value of parameter LogFile to ../results/logs/log_2021_11_12_12_08.csv_4_250.log
   Prev:   Default: 
Changed value of parameter method to 3
   Prev: -1  Min: -1  Max: 5  Default: -1
Gurobi Optimizer version 9.0.1 build v9.0.1rc0 (win64)
Optimize a model with 15828 rows, 46266 columns and 65319 nonzeros
Model fingerprint: 0x40ad16a7
Variable types: 23133 continuous, 23133 integer (23133 binary)
Coefficient statistics:
  Matrix range     [1e+00, 4e+00]
  Objective range  [1e+00, 1e+00]
  Bounds range     [1e+00, 1e+00]
  RHS range        [1e+00, 3e+02]
Found heuristic solution: objective 13467.000000
Presolve removed 14853 rows and 44870 columns
Presolve time: 0.11s
Presolved: 975 rows, 1396 columns, 4308 nonzeros
Variable types: 489 continuous, 907 integer (753 binary)

Concurrent LP optimizer: dual simplex and barrier
Showing barrier log only...

Root barrier log...

Ordering time: 0.00s

Barrier statistics:
 AA' NZ     : 2.637e+03
 Factor NZ  : 4.866e+03 (roughly 1 MByte of memory)
 Factor Ops : 3.774e+04 (less than 1 second per iteration)
 Threads    : 1

                  Objective                Residual
Iter       Primal          Dual         Primal    Dual     Compl     Time
   0   2.34367810e+04  2.21328322e+04  2.18e+03 3.12e+00  8.69e+01     0s
   1   1.93295395e+04  2.33039028e+04  1.32e+03 5.33e-15  5.30e+01     0s
   2   1.38514008e+04  2.24523532e+04  2.27e+01 7.11e-15  3.11e+00     0s

Barrier performed 2 iterations in 0.14 seconds
Barrier solve interrupted - model solved by another algorithm


Solved with dual simplex

Root relaxation: objective 1.403275e+04, 404 iterations, 0.01 seconds

    Nodes    |    Current Node    |     Objective Bounds      |     Work
 Expl Unexpl |  Obj  Depth IntInf | Incumbent    BestBd   Gap | It/Node Time

     0     0 14032.7508    0  208 13467.0000 14032.7508  4.20%     -    0s
H    0     0                    13907.000000 14032.7508  0.90%     -    0s
     0     0 13959.7870    0   78 13907.0000 13959.7870  0.38%     -    0s
     0     0 13957.5789    0   75 13907.0000 13957.5789  0.36%     -    0s
     0     0 13957.2455    0   73 13907.0000 13957.2455  0.36%     -    0s
     0     0 13957.2455    0   73 13907.0000 13957.2455  0.36%     -    0s
     0     0 13952.0377    0   55 13907.0000 13952.0377  0.32%     -    0s
     0     0 13950.8757    0   57 13907.0000 13950.8757  0.32%     -    0s
     0     0 13950.8329    0   59 13907.0000 13950.8329  0.32%     -    0s
     0     0 13949.6887    0   40 13907.0000 13949.6887  0.31%     -    0s
     0     0 13949.4432    0   33 13907.0000 13949.4432  0.31%     -    0s
H    0     0                    13946.000000 13949.4432  0.02%     -    0s
     0     0 13948.2967    0   16 13946.0000 13948.2967  0.02%     -    0s
     0     0 13947.8511    0   12 13946.0000 13947.8511  0.01%     -    0s

Cutting planes:
  Gomory: 125
  Implied bound: 16
  MIR: 236
  RLT: 20
  Relax-and-lift: 16

Explored 1 nodes (1206 simplex iterations) in 0.43 seconds
Thread count was 8 (of 8 available processors)

Solution count 3: 13946 13907 13467 

Optimal solution found (tolerance 1.00e-04)
Best objective 1.394600000000e+04, best bound 1.394700000000e+04, gap 0.0072%

Gurobi 9.0.1 (win64) logging started 11/12/21 12:08:24

Changed value of parameter LogFile to ../results/logs/log_2021_11_12_12_08.csv_4_250.log
   Prev:   Default: 
Changed value of parameter method to 3
   Prev: -1  Min: -1  Max: 5  Default: -1
Gurobi Optimizer version 9.0.1 build v9.0.1rc0 (win64)
Optimize a model with 7862 rows, 24016 columns and 33326 nonzeros
Model fingerprint: 0xa551f3c7
Variable types: 12008 continuous, 12008 integer (12008 binary)
Coefficient statistics:
  Matrix range     [1e+00, 4e+00]
  Objective range  [1e+00, 1e+00]
  Bounds range     [1e+00, 1e+00]
  RHS range        [1e+00, 3e+02]
Found heuristic solution: objective 6591.0000000
Presolve removed 7315 rows and 23229 columns
Presolve time: 0.06s
Presolved: 547 rows, 787 columns, 2410 nonzeros
Variable types: 264 continuous, 523 integer (427 binary)

Concurrent LP optimizer: dual simplex and barrier
Showing barrier log only...

Root barrier log...

Ordering time: 0.00s

Barrier statistics:
 AA' NZ     : 1.455e+03
 Factor NZ  : 2.761e+03 (roughly 1 MByte of memory)
 Factor Ops : 2.161e+04 (less than 1 second per iteration)
 Threads    : 1

                  Objective                Residual
Iter       Primal          Dual         Primal    Dual     Compl     Time
   0   1.14361814e+04  1.18319369e+04  1.00e+03 9.17e-01  7.40e+01     0s
   1   8.74950273e+03  1.28779044e+04  4.98e+02 6.22e-15  3.57e+01     0s
   2   6.76435836e+03  1.16120252e+04  0.00e+00 7.99e-15  2.29e+00     0s

Barrier performed 2 iterations in 0.08 seconds
Barrier solve interrupted - model solved by another algorithm


Solved with dual simplex

Root relaxation: objective 7.021161e+03, 316 iterations, 0.01 seconds

    Nodes    |    Current Node    |     Objective Bounds      |     Work
 Expl Unexpl |  Obj  Depth IntInf | Incumbent    BestBd   Gap | It/Node Time

     0     0 7021.16136    0  109 6591.00000 7021.16136  6.53%     -    0s
H    0     0                    6954.0000000 7021.16136  0.97%     -    0s
H    0     0                    6973.0000000 7021.16136  0.69%     -    0s
     0     0 6984.00300    0   38 6973.00000 6984.00300  0.16%     -    0s
H    0     0                    6975.0000000 6984.00300  0.13%     -    0s
     0     0 6983.27348    0   36 6975.00000 6983.27348  0.12%     -    0s
     0     0 6983.13539    0   35 6975.00000 6983.13539  0.12%     -    0s
     0     0 6983.13539    0   35 6975.00000 6983.13539  0.12%     -    0s
H    0     0                    6977.0000000 6983.13539  0.09%     -    0s
     0     0 6980.54028    0   20 6977.00000 6980.54028  0.05%     -    0s
     0     0 6980.53333    0   13 6977.00000 6980.53333  0.05%     -    0s
